; benchmark generated from python API
(set-info :status unknown)
(declare-fun a3 () Real)
(declare-fun a2 () Real)
(declare-fun a1 () Real)
(declare-fun a0 () Real)
(assert
 (forall ((x1 Real) (x2 Real) )(let ((?x73 (* a3 (^ x2 2.0))))
 (let ((?x74 (^ x1 2.0)))
 (let ((?x75 (* a2 ?x74)))
 (let (($x82 (>= (+ (+ (+ (+ (- 1.0) (* a0 x1)) (* a1 x2)) ?x75) ?x73) 0.0)))
 (let (($x83 (<= x2 10.0)))
 (let (($x84 (>= x2 (- 10.0))))
 (let (($x85 (<= x1 10.0)))
 (let (($x86 (>= x1 (- 10.0))))
 (let (($x87 (and $x86 $x85 $x84 $x83)))
 (let (($x93 (and (>= (- (- 1.0 ?x74) (^ (- x2 3.0) 2.0)) 0.0) $x87)))
 (=> $x93 $x82))))))))))))
 )
(assert
 (forall ((x1 Real) (x2 Real) )(let ((?x107 (+ (+ (- 1.0) (* a0 (+ (* (- x2 x1) (/ 1.0 10.0)) x1))) (* a1 (* (/ 9.0 10.0) x2)))))
 (let ((?x109 (+ (+ ?x107 (* a2 (^ (+ (* (- x2 x1) (/ 1.0 10.0)) x1) 2.0))) (* a3 (^ (* (/ 9.0 10.0) x2) 2.0)))))
 (let (($x83 (<= x2 10.0)))
 (let (($x84 (>= x2 (- 10.0))))
 (let (($x85 (<= x1 10.0)))
 (let (($x86 (>= x1 (- 10.0))))
 (let (($x87 (and $x86 $x85 $x84 $x83)))
 (let (($x113 (>= (- (- 4.0 (^ x1 2.0)) (^ (- x2 3.0) 2.0)) 0.0)))
 (let ((?x73 (* a3 (^ x2 2.0))))
 (let ((?x74 (^ x1 2.0)))
 (let ((?x75 (* a2 ?x74)))
 (let (($x82 (>= (+ (+ (+ (+ (- 1.0) (* a0 x1)) (* a1 x2)) ?x75) ?x73) 0.0)))
 (=> (and $x82 $x113 $x87) (>= ?x109 0.0)))))))))))))))
 )
(assert
 (forall ((x1 Real) (x2 Real) )(let ((?x123 (- (+ (^ (- x1 2.0) 2.0) (^ (- x2 2.0) 2.0)) 9.0)))
 (let (($x83 (<= x2 10.0)))
 (let (($x84 (>= x2 (- 10.0))))
 (let (($x85 (<= x1 10.0)))
 (let (($x86 (>= x1 (- 10.0))))
 (let (($x87 (and $x86 $x85 $x84 $x83)))
 (let (($x113 (>= (- (- 4.0 (^ x1 2.0)) (^ (- x2 3.0) 2.0)) 0.0)))
 (let ((?x73 (* a3 (^ x2 2.0))))
 (let ((?x74 (^ x1 2.0)))
 (let ((?x75 (* a2 ?x74)))
 (let (($x82 (>= (+ (+ (+ (+ (- 1.0) (* a0 x1)) (* a1 x2)) ?x75) ?x73) 0.0)))
 (=> (and $x82 (not $x113) $x87) (<= ?x123 0.0))))))))))))))
 )
(check-sat)
